; Options: -in -smt2
(set-option :produce-unsat-assumptions true)

(declare-fun start!44828 () Bool)

(assert start!44828)

(declare-fun b!215252 () Bool)

(declare-fun e!146477 () Bool)

(declare-datatypes ((array!10591 0))(
  ( (array!10592 (arr!5582 (Array (_ BitVec 32) (_ BitVec 8))) (size!4652 (_ BitVec 32))) )
))
(declare-datatypes ((BitStream!8412 0))(
  ( (BitStream!8413 (buf!5187 array!10591) (currentByte!9765 (_ BitVec 32)) (currentBit!9760 (_ BitVec 32))) )
))
(declare-datatypes ((tuple2!18442 0))(
  ( (tuple2!18443 (_1!9876 BitStream!8412) (_2!9876 Bool)) )
))
(declare-fun lt!339965 () tuple2!18442)

(declare-fun lt!339967 () (_ BitVec 64))

(declare-fun bitIndex!0 ((_ BitVec 32) (_ BitVec 32) (_ BitVec 32)) (_ BitVec 64))

(assert (=> b!215252 (= e!146477 (= (bitIndex!0 (size!4652 (buf!5187 (_1!9876 lt!339965))) (currentByte!9765 (_1!9876 lt!339965)) (currentBit!9760 (_1!9876 lt!339965))) lt!339967))))

(declare-fun b!215253 () Bool)

(declare-fun e!146472 () Bool)

(declare-fun lt!339978 () tuple2!18442)

(declare-fun lt!339964 () tuple2!18442)

(assert (=> b!215253 (= e!146472 (= (_2!9876 lt!339978) (_2!9876 lt!339964)))))

(declare-fun b!215254 () Bool)

(declare-fun res!181071 () Bool)

(declare-fun e!146469 () Bool)

(assert (=> b!215254 (=> (not res!181071) (not e!146469))))

(declare-fun thiss!1204 () BitStream!8412)

(declare-datatypes ((Unit!15288 0))(
  ( (Unit!15289) )
))
(declare-datatypes ((tuple2!18444 0))(
  ( (tuple2!18445 (_1!9877 Unit!15288) (_2!9877 BitStream!8412)) )
))
(declare-fun lt!339974 () tuple2!18444)

(declare-fun isPrefixOf!0 (BitStream!8412 BitStream!8412) Bool)

(assert (=> b!215254 (= res!181071 (isPrefixOf!0 thiss!1204 (_2!9877 lt!339974)))))

(declare-fun b!215256 () Bool)

(declare-fun res!181067 () Bool)

(declare-fun e!146475 () Bool)

(assert (=> b!215256 (=> (not res!181067) (not e!146475))))

(declare-fun invariant!0 ((_ BitVec 32) (_ BitVec 32) (_ BitVec 32)) Bool)

(assert (=> b!215256 (= res!181067 (invariant!0 (currentBit!9760 thiss!1204) (currentByte!9765 thiss!1204) (size!4652 (buf!5187 thiss!1204))))))

(declare-fun b!215257 () Bool)

(declare-fun res!181062 () Bool)

(declare-fun e!146481 () Bool)

(assert (=> b!215257 (=> res!181062 e!146481)))

(declare-datatypes ((tuple2!18446 0))(
  ( (tuple2!18447 (_1!9878 BitStream!8412) (_2!9878 (_ BitVec 64))) )
))
(declare-fun lt!339954 () tuple2!18446)

(declare-datatypes ((tuple2!18448 0))(
  ( (tuple2!18449 (_1!9879 BitStream!8412) (_2!9879 BitStream!8412)) )
))
(declare-fun lt!339972 () tuple2!18448)

(assert (=> b!215257 (= res!181062 (not (= (bitIndex!0 (size!4652 (buf!5187 (_1!9878 lt!339954))) (currentByte!9765 (_1!9878 lt!339954)) (currentBit!9760 (_1!9878 lt!339954))) (bitIndex!0 (size!4652 (buf!5187 (_2!9879 lt!339972))) (currentByte!9765 (_2!9879 lt!339972)) (currentBit!9760 (_2!9879 lt!339972))))))))

(declare-fun b!215258 () Bool)

(declare-fun res!181060 () Bool)

(assert (=> b!215258 (=> (not res!181060) (not e!146475))))

(declare-fun i!590 () (_ BitVec 32))

(declare-fun nBits!348 () (_ BitVec 32))

(assert (=> b!215258 (= res!181060 (not (= i!590 nBits!348)))))

(declare-fun lt!339952 () BitStream!8412)

(declare-fun e!146480 () Bool)

(declare-fun lt!339960 () tuple2!18446)

(declare-fun b!215259 () Bool)

(declare-fun lt!339962 () (_ BitVec 64))

(declare-fun lt!339955 () (_ BitVec 64))

(declare-fun lt!339970 () tuple2!18448)

(assert (=> b!215259 (= e!146480 (and (= lt!339955 (bvsub lt!339962 #b0000000000000000000000000000000000000000000000000000000000000001)) (or (not (= (_1!9879 lt!339970) lt!339952)) (= (_2!9878 lt!339954) (_2!9878 lt!339960)))))))

(declare-fun b!215260 () Bool)

(assert (=> b!215260 (= e!146481 true)))

(declare-fun lt!339958 () tuple2!18444)

(assert (=> b!215260 (= (size!4652 (buf!5187 thiss!1204)) (size!4652 (buf!5187 (_2!9877 lt!339958))))))

(declare-fun b!215261 () Bool)

(declare-fun res!181058 () Bool)

(assert (=> b!215261 (=> (not res!181058) (not e!146480))))

(declare-fun lt!339968 () (_ BitVec 64))

(declare-fun withMovedBitIndex!0 (BitStream!8412 (_ BitVec 64)) BitStream!8412)

(assert (=> b!215261 (= res!181058 (= (_1!9879 lt!339972) (withMovedBitIndex!0 (_2!9879 lt!339972) (bvsub lt!339955 lt!339968))))))

(declare-fun b!215262 () Bool)

(declare-fun res!181053 () Bool)

(declare-fun e!146476 () Bool)

(assert (=> b!215262 (=> res!181053 e!146476)))

(assert (=> b!215262 (= res!181053 (not (isPrefixOf!0 thiss!1204 (_2!9877 lt!339974))))))

(declare-fun b!215263 () Bool)

(declare-fun res!181059 () Bool)

(assert (=> b!215263 (=> res!181059 e!146476)))

(assert (=> b!215263 (= res!181059 (or (not (= (size!4652 (buf!5187 (_2!9877 lt!339958))) (size!4652 (buf!5187 thiss!1204)))) (not (= lt!339968 (bvsub (bvadd lt!339955 ((_ sign_extend 32) nBits!348)) ((_ sign_extend 32) i!590))))))))

(declare-fun b!215264 () Bool)

(declare-fun e!146478 () Bool)

(assert (=> b!215264 (= e!146475 (not e!146478))))

(declare-fun res!181054 () Bool)

(assert (=> b!215264 (=> res!181054 e!146478)))

(assert (=> b!215264 (= res!181054 (not (= lt!339962 (bvadd #b0000000000000000000000000000000000000000000000000000000000000001 lt!339955))))))

(assert (=> b!215264 (= lt!339962 (bitIndex!0 (size!4652 (buf!5187 (_2!9877 lt!339974))) (currentByte!9765 (_2!9877 lt!339974)) (currentBit!9760 (_2!9877 lt!339974))))))

(assert (=> b!215264 (= lt!339955 (bitIndex!0 (size!4652 (buf!5187 thiss!1204)) (currentByte!9765 thiss!1204) (currentBit!9760 thiss!1204)))))

(declare-fun e!146470 () Bool)

(assert (=> b!215264 e!146470))

(declare-fun res!181070 () Bool)

(assert (=> b!215264 (=> (not res!181070) (not e!146470))))

(assert (=> b!215264 (= res!181070 (= (size!4652 (buf!5187 thiss!1204)) (size!4652 (buf!5187 (_2!9877 lt!339974)))))))

(declare-fun lt!339953 () Bool)

(declare-fun appendBit!0 (BitStream!8412 Bool) tuple2!18444)

(assert (=> b!215264 (= lt!339974 (appendBit!0 thiss!1204 lt!339953))))

(declare-fun v!189 () (_ BitVec 64))

(declare-fun lt!339973 () (_ BitVec 64))

(assert (=> b!215264 (= lt!339953 (not (= (bvand v!189 lt!339973) #b0000000000000000000000000000000000000000000000000000000000000000)))))

(assert (=> b!215264 (= lt!339973 (bvshl #b0000000000000000000000000000000000000000000000000000000000000001 ((_ sign_extend 32) i!590)))))

(declare-fun b!215265 () Bool)

(declare-fun e!146471 () Bool)

(assert (=> b!215265 (= e!146471 e!146481)))

(declare-fun res!181055 () Bool)

(assert (=> b!215265 (=> res!181055 e!146481)))

(assert (=> b!215265 (= res!181055 (not (= (_1!9879 lt!339970) lt!339952)))))

(assert (=> b!215265 e!146480))

(declare-fun res!181066 () Bool)

(assert (=> b!215265 (=> (not res!181066) (not e!146480))))

(declare-fun lt!339966 () tuple2!18446)

(assert (=> b!215265 (= res!181066 (and (= (_2!9878 lt!339954) (_2!9878 lt!339966)) (= (_1!9878 lt!339954) (_1!9878 lt!339966))))))

(declare-fun lt!339969 () (_ BitVec 64))

(declare-fun lt!339963 () Unit!15288)

(declare-fun lemmaReadNBitsLSBFirstsLoopIsCorrect!0 (BitStream!8412 (_ BitVec 32) (_ BitVec 32) (_ BitVec 64)) Unit!15288)

(assert (=> b!215265 (= lt!339963 (lemmaReadNBitsLSBFirstsLoopIsCorrect!0 (_1!9879 lt!339972) nBits!348 i!590 lt!339969))))

(declare-fun lt!339975 () (_ BitVec 64))

(declare-fun readNBitsLSBFirstsLoopPure!0 (BitStream!8412 (_ BitVec 32) (_ BitVec 32) (_ BitVec 64)) tuple2!18446)

(assert (=> b!215265 (= lt!339966 (readNBitsLSBFirstsLoopPure!0 lt!339952 nBits!348 (bvadd #b00000000000000000000000000000001 i!590) lt!339975))))

(assert (=> b!215265 (= lt!339952 (withMovedBitIndex!0 (_1!9879 lt!339972) #b0000000000000000000000000000000000000000000000000000000000000001))))

(declare-fun b!215266 () Bool)

(assert (=> b!215266 (= e!146478 e!146476)))

(declare-fun res!181056 () Bool)

(assert (=> b!215266 (=> res!181056 e!146476)))

(assert (=> b!215266 (= res!181056 (not (= lt!339968 (bvsub (bvsub (bvadd lt!339962 ((_ sign_extend 32) nBits!348)) ((_ sign_extend 32) i!590)) #b0000000000000000000000000000000000000000000000000000000000000001))))))

(assert (=> b!215266 (= lt!339968 (bitIndex!0 (size!4652 (buf!5187 (_2!9877 lt!339958))) (currentByte!9765 (_2!9877 lt!339958)) (currentBit!9760 (_2!9877 lt!339958))))))

(assert (=> b!215266 (isPrefixOf!0 thiss!1204 (_2!9877 lt!339958))))

(declare-fun lt!339957 () Unit!15288)

(declare-fun lemmaIsPrefixTransitive!0 (BitStream!8412 BitStream!8412 BitStream!8412) Unit!15288)

(assert (=> b!215266 (= lt!339957 (lemmaIsPrefixTransitive!0 thiss!1204 (_2!9877 lt!339974) (_2!9877 lt!339958)))))

(declare-fun appendBitsLSBFirstLoopTR!0 (BitStream!8412 (_ BitVec 64) (_ BitVec 32) (_ BitVec 32)) tuple2!18444)

(assert (=> b!215266 (= lt!339958 (appendBitsLSBFirstLoopTR!0 (_2!9877 lt!339974) v!189 nBits!348 (bvadd #b00000000000000000000000000000001 i!590)))))

(declare-fun b!215267 () Bool)

(assert (=> b!215267 (= e!146476 e!146471)))

(declare-fun res!181065 () Bool)

(assert (=> b!215267 (=> res!181065 e!146471)))

(assert (=> b!215267 (= res!181065 (not (= (_1!9878 lt!339960) (_2!9879 lt!339970))))))

(assert (=> b!215267 (= lt!339960 (readNBitsLSBFirstsLoopPure!0 (_1!9879 lt!339970) nBits!348 (bvadd #b00000000000000000000000000000001 i!590) lt!339975))))

(declare-fun lt!339959 () (_ BitVec 64))

(declare-fun validate_offset_bits!1 ((_ BitVec 64) (_ BitVec 64) (_ BitVec 64) (_ BitVec 64)) Bool)

(assert (=> b!215267 (validate_offset_bits!1 ((_ sign_extend 32) (size!4652 (buf!5187 (_2!9877 lt!339958)))) ((_ sign_extend 32) (currentByte!9765 (_2!9877 lt!339974))) ((_ sign_extend 32) (currentBit!9760 (_2!9877 lt!339974))) lt!339959)))

(declare-fun lt!339971 () Unit!15288)

(declare-fun validateOffsetBitsContentIrrelevancyLemma!0 (BitStream!8412 array!10591 (_ BitVec 64)) Unit!15288)

(assert (=> b!215267 (= lt!339971 (validateOffsetBitsContentIrrelevancyLemma!0 (_2!9877 lt!339974) (buf!5187 (_2!9877 lt!339958)) lt!339959))))

(assert (=> b!215267 (= lt!339959 ((_ sign_extend 32) (bvsub (bvsub nBits!348 i!590) #b00000000000000000000000000000001)))))

(declare-fun lt!339979 () tuple2!18442)

(assert (=> b!215267 (= lt!339975 (bvor lt!339969 (ite (_2!9876 lt!339979) lt!339973 #b0000000000000000000000000000000000000000000000000000000000000000)))))

(assert (=> b!215267 (= lt!339954 (readNBitsLSBFirstsLoopPure!0 (_1!9879 lt!339972) nBits!348 i!590 lt!339969))))

(declare-fun lt!339980 () (_ BitVec 64))

(assert (=> b!215267 (validate_offset_bits!1 ((_ sign_extend 32) (size!4652 (buf!5187 (_2!9877 lt!339958)))) ((_ sign_extend 32) (currentByte!9765 thiss!1204)) ((_ sign_extend 32) (currentBit!9760 thiss!1204)) lt!339980)))

(declare-fun lt!339977 () Unit!15288)

(assert (=> b!215267 (= lt!339977 (validateOffsetBitsContentIrrelevancyLemma!0 thiss!1204 (buf!5187 (_2!9877 lt!339958)) lt!339980))))

(declare-fun onesLSBLong!0 ((_ BitVec 32)) (_ BitVec 64))

(assert (=> b!215267 (= lt!339969 (bvand v!189 (onesLSBLong!0 i!590)))))

(assert (=> b!215267 (= (_2!9876 lt!339979) lt!339953)))

(declare-fun readBitPure!0 (BitStream!8412) tuple2!18442)

(assert (=> b!215267 (= lt!339979 (readBitPure!0 (_1!9879 lt!339972)))))

(declare-fun reader!0 (BitStream!8412 BitStream!8412) tuple2!18448)

(assert (=> b!215267 (= lt!339970 (reader!0 (_2!9877 lt!339974) (_2!9877 lt!339958)))))

(assert (=> b!215267 (= lt!339972 (reader!0 thiss!1204 (_2!9877 lt!339958)))))

(assert (=> b!215267 e!146472))

(declare-fun res!181052 () Bool)

(assert (=> b!215267 (=> (not res!181052) (not e!146472))))

(assert (=> b!215267 (= res!181052 (= (bitIndex!0 (size!4652 (buf!5187 (_1!9876 lt!339978))) (currentByte!9765 (_1!9876 lt!339978)) (currentBit!9760 (_1!9876 lt!339978))) (bitIndex!0 (size!4652 (buf!5187 (_1!9876 lt!339964))) (currentByte!9765 (_1!9876 lt!339964)) (currentBit!9760 (_1!9876 lt!339964)))))))

(declare-fun lt!339961 () Unit!15288)

(declare-fun lt!339976 () BitStream!8412)

(declare-fun readBitPrefixLemma!0 (BitStream!8412 BitStream!8412) Unit!15288)

(assert (=> b!215267 (= lt!339961 (readBitPrefixLemma!0 lt!339976 (_2!9877 lt!339958)))))

(assert (=> b!215267 (= lt!339964 (readBitPure!0 (BitStream!8413 (buf!5187 (_2!9877 lt!339958)) (currentByte!9765 thiss!1204) (currentBit!9760 thiss!1204))))))

(assert (=> b!215267 (= lt!339978 (readBitPure!0 lt!339976))))

(declare-fun e!146479 () Bool)

(assert (=> b!215267 e!146479))

(declare-fun res!181064 () Bool)

(assert (=> b!215267 (=> (not res!181064) (not e!146479))))

(assert (=> b!215267 (= res!181064 (invariant!0 (currentBit!9760 thiss!1204) (currentByte!9765 thiss!1204) (size!4652 (buf!5187 (_2!9877 lt!339974)))))))

(assert (=> b!215267 (= lt!339976 (BitStream!8413 (buf!5187 (_2!9877 lt!339974)) (currentByte!9765 thiss!1204) (currentBit!9760 thiss!1204)))))

(declare-fun b!215268 () Bool)

(declare-fun res!181063 () Bool)

(assert (=> b!215268 (=> res!181063 e!146476)))

(assert (=> b!215268 (= res!181063 (not (isPrefixOf!0 (_2!9877 lt!339974) (_2!9877 lt!339958))))))

(declare-fun b!215269 () Bool)

(assert (=> b!215269 (= e!146470 e!146469)))

(declare-fun res!181061 () Bool)

(assert (=> b!215269 (=> (not res!181061) (not e!146469))))

(declare-fun lt!339956 () (_ BitVec 64))

(assert (=> b!215269 (= res!181061 (= lt!339967 (bvadd #b0000000000000000000000000000000000000000000000000000000000000001 lt!339956)))))

(assert (=> b!215269 (= lt!339967 (bitIndex!0 (size!4652 (buf!5187 (_2!9877 lt!339974))) (currentByte!9765 (_2!9877 lt!339974)) (currentBit!9760 (_2!9877 lt!339974))))))

(assert (=> b!215269 (= lt!339956 (bitIndex!0 (size!4652 (buf!5187 thiss!1204)) (currentByte!9765 thiss!1204) (currentBit!9760 thiss!1204)))))

(declare-fun b!215270 () Bool)

(assert (=> b!215270 (= e!146469 e!146477)))

(declare-fun res!181068 () Bool)

(assert (=> b!215270 (=> (not res!181068) (not e!146477))))

(assert (=> b!215270 (= res!181068 (and (= (_2!9876 lt!339965) lt!339953) (= (_1!9876 lt!339965) (_2!9877 lt!339974))))))

(declare-fun readerFrom!0 (BitStream!8412 (_ BitVec 32) (_ BitVec 32)) BitStream!8412)

(assert (=> b!215270 (= lt!339965 (readBitPure!0 (readerFrom!0 (_2!9877 lt!339974) (currentBit!9760 thiss!1204) (currentByte!9765 thiss!1204))))))

(declare-fun b!215271 () Bool)

(declare-fun e!146474 () Bool)

(assert (=> b!215271 (= e!146474 e!146475)))

(declare-fun res!181073 () Bool)

(assert (=> b!215271 (=> (not res!181073) (not e!146475))))

(assert (=> b!215271 (= res!181073 (validate_offset_bits!1 ((_ sign_extend 32) (size!4652 (buf!5187 thiss!1204))) ((_ sign_extend 32) (currentByte!9765 thiss!1204)) ((_ sign_extend 32) (currentBit!9760 thiss!1204)) lt!339980))))

(assert (=> b!215271 (= lt!339980 ((_ sign_extend 32) (bvsub nBits!348 i!590)))))

(declare-fun b!215272 () Bool)

(declare-fun res!181057 () Bool)

(assert (=> b!215272 (=> res!181057 e!146476)))

(assert (=> b!215272 (= res!181057 (not (invariant!0 (currentBit!9760 (_2!9877 lt!339958)) (currentByte!9765 (_2!9877 lt!339958)) (size!4652 (buf!5187 (_2!9877 lt!339958))))))))

(declare-fun b!215255 () Bool)

(declare-fun e!146468 () Bool)

(declare-fun array_inv!4393 (array!10591) Bool)

(assert (=> b!215255 (= e!146468 (array_inv!4393 (buf!5187 thiss!1204)))))

(declare-fun res!181069 () Bool)

(assert (=> start!44828 (=> (not res!181069) (not e!146474))))

(assert (=> start!44828 (= res!181069 (and (bvsge nBits!348 #b00000000000000000000000000000000) (bvsle nBits!348 #b00000000000000000000000001000000) (bvsle #b00000000000000000000000000000000 i!590) (bvsle i!590 nBits!348)))))

(assert (=> start!44828 e!146474))

(assert (=> start!44828 true))

(declare-fun inv!12 (BitStream!8412) Bool)

(assert (=> start!44828 (and (inv!12 thiss!1204) e!146468)))

(declare-fun b!215273 () Bool)

(assert (=> b!215273 (= e!146479 (invariant!0 (currentBit!9760 thiss!1204) (currentByte!9765 thiss!1204) (size!4652 (buf!5187 (_2!9877 lt!339958)))))))

(declare-fun b!215274 () Bool)

(declare-fun res!181072 () Bool)

(assert (=> b!215274 (=> (not res!181072) (not e!146480))))

(assert (=> b!215274 (= res!181072 (= (_1!9879 lt!339970) (withMovedBitIndex!0 (_2!9879 lt!339970) (bvsub lt!339962 lt!339968))))))

(assert (= (and start!44828 res!181069) b!215271))

(assert (= (and b!215271 res!181073) b!215256))

(assert (= (and b!215256 res!181067) b!215258))

(assert (= (and b!215258 res!181060) b!215264))

(assert (= (and b!215264 res!181070) b!215269))

(assert (= (and b!215269 res!181061) b!215254))

(assert (= (and b!215254 res!181071) b!215270))

(assert (= (and b!215270 res!181068) b!215252))

(assert (= (and b!215264 (not res!181054)) b!215266))

(assert (= (and b!215266 (not res!181056)) b!215272))

(assert (= (and b!215272 (not res!181057)) b!215263))

(assert (= (and b!215263 (not res!181059)) b!215268))

(assert (= (and b!215268 (not res!181063)) b!215262))

(assert (= (and b!215262 (not res!181053)) b!215267))

(assert (= (and b!215267 res!181064) b!215273))

(assert (= (and b!215267 res!181052) b!215253))

(assert (= (and b!215267 (not res!181065)) b!215265))

(assert (= (and b!215265 res!181066) b!215261))

(assert (= (and b!215261 res!181058) b!215274))

(assert (= (and b!215274 res!181072) b!215259))

(assert (= (and b!215265 (not res!181055)) b!215257))

(assert (= (and b!215257 (not res!181062)) b!215260))

(assert (= start!44828 b!215255))

(declare-fun m!331459 () Bool)

(assert (=> b!215256 m!331459))

(declare-fun m!331461 () Bool)

(assert (=> b!215271 m!331461))

(declare-fun m!331463 () Bool)

(assert (=> b!215274 m!331463))

(declare-fun m!331465 () Bool)

(assert (=> b!215266 m!331465))

(declare-fun m!331467 () Bool)

(assert (=> b!215266 m!331467))

(declare-fun m!331469 () Bool)

(assert (=> b!215266 m!331469))

(declare-fun m!331471 () Bool)

(assert (=> b!215266 m!331471))

(declare-fun m!331473 () Bool)

(assert (=> b!215272 m!331473))

(declare-fun m!331475 () Bool)

(assert (=> b!215267 m!331475))

(declare-fun m!331477 () Bool)

(assert (=> b!215267 m!331477))

(declare-fun m!331479 () Bool)

(assert (=> b!215267 m!331479))

(declare-fun m!331481 () Bool)

(assert (=> b!215267 m!331481))

(declare-fun m!331483 () Bool)

(assert (=> b!215267 m!331483))

(declare-fun m!331485 () Bool)

(assert (=> b!215267 m!331485))

(declare-fun m!331487 () Bool)

(assert (=> b!215267 m!331487))

(declare-fun m!331489 () Bool)

(assert (=> b!215267 m!331489))

(declare-fun m!331491 () Bool)

(assert (=> b!215267 m!331491))

(declare-fun m!331493 () Bool)

(assert (=> b!215267 m!331493))

(declare-fun m!331495 () Bool)

(assert (=> b!215267 m!331495))

(declare-fun m!331497 () Bool)

(assert (=> b!215267 m!331497))

(declare-fun m!331499 () Bool)

(assert (=> b!215267 m!331499))

(declare-fun m!331501 () Bool)

(assert (=> b!215267 m!331501))

(declare-fun m!331503 () Bool)

(assert (=> b!215267 m!331503))

(declare-fun m!331505 () Bool)

(assert (=> b!215267 m!331505))

(declare-fun m!331507 () Bool)

(assert (=> b!215262 m!331507))

(declare-fun m!331509 () Bool)

(assert (=> b!215252 m!331509))

(declare-fun m!331511 () Bool)

(assert (=> b!215261 m!331511))

(declare-fun m!331513 () Bool)

(assert (=> b!215257 m!331513))

(declare-fun m!331515 () Bool)

(assert (=> b!215257 m!331515))

(declare-fun m!331517 () Bool)

(assert (=> b!215273 m!331517))

(declare-fun m!331519 () Bool)

(assert (=> b!215270 m!331519))

(assert (=> b!215270 m!331519))

(declare-fun m!331521 () Bool)

(assert (=> b!215270 m!331521))

(declare-fun m!331523 () Bool)

(assert (=> b!215268 m!331523))

(declare-fun m!331525 () Bool)

(assert (=> start!44828 m!331525))

(declare-fun m!331527 () Bool)

(assert (=> b!215269 m!331527))

(declare-fun m!331529 () Bool)

(assert (=> b!215269 m!331529))

(assert (=> b!215264 m!331527))

(assert (=> b!215264 m!331529))

(declare-fun m!331531 () Bool)

(assert (=> b!215264 m!331531))

(declare-fun m!331533 () Bool)

(assert (=> b!215265 m!331533))

(declare-fun m!331535 () Bool)

(assert (=> b!215265 m!331535))

(declare-fun m!331537 () Bool)

(assert (=> b!215265 m!331537))

(declare-fun m!331539 () Bool)

(assert (=> b!215255 m!331539))

(assert (=> b!215254 m!331507))

(check-sat (not b!215257) (not b!215271) (not b!215269) (not b!215273) (not b!215270) (not b!215261) (not b!215272) (not b!215268) (not b!215254) (not b!215274) (not b!215264) (not b!215267) (not b!215252) (not b!215265) (not b!215255) (not b!215266) (not b!215262) (not start!44828) (not b!215256))
